40
2	5	7	8	11	13	14	16	20	22	24	27	28	32	34	35	36	0
1	3	8	9	10	14	16	18	21	24	26	28	30	31	32	35	0
2	4	5	6	12	13	14	16	17	29	30	0
3	6	9	10	13	15	18	19	22	23	24	26	27	29	30	33	0
1	3	7	10	13	14	15	20	23	27	31	34	35	38	40	0
3	4	8	9	15	17	19	24	25	27	28	31	32	33	35	36	37	38	0
1	5	8	9	10	11	12	13	14	16	21	22	24	30	31	32	35	36	38	0
1	2	6	7	10	13	15	21	24	27	33	34	35	37	40	0
2	4	6	7	14	17	18	20	23	24	30	34	36	0
2	4	5	7	8	12	14	15	18	21	29	31	32	33	35	37	0
1	7	17	24	29	30	31	33	34	36	37	38	40	0
3	7	10	13	15	16	18	19	20	21	22	23	31	37	38	39	0
1	3	4	5	7	8	12	18	21	23	24	25	30	31	32	33	37	39	0
1	2	3	5	7	9	10	15	16	18	19	23	26	27	32	34	35	37	39	40	0
4	5	6	8	10	12	14	21	23	27	30	34	37	40	0
1	2	3	7	12	14	17	18	19	21	30	36	38	0
3	6	9	11	16	22	27	28	29	30	34	39	0
2	4	9	10	12	13	14	16	19	20	22	27	28	29	30	34	0
4	6	12	14	16	18	23	24	25	29	30	33	34	35	38	40	0
1	5	9	12	18	22	23	24	25	27	29	30	31	34	36	39	40	0
2	7	8	10	12	13	15	16	22	24	27	29	30	31	35	37	39	40	0
1	4	7	12	17	18	20	21	24	26	27	28	29	31	32	36	37	0
4	5	9	12	13	14	15	19	20	27	32	40	0
1	2	4	6	7	8	9	11	13	19	20	21	22	26	28	31	32	34	38	0
6	13	19	20	30	31	33	34	38	39	40	0
2	4	14	22	24	29	30	31	35	36	39	0
1	4	5	6	8	14	15	17	18	20	21	22	23	28	31	33	34	36	37	38	39	0
1	2	6	17	18	22	24	27	36	37	39	40	0
3	4	10	11	17	18	19	20	21	22	26	37	0
2	3	4	7	9	11	13	15	16	17	18	19	20	21	25	26	33	35	36	37	38	39	0
2	5	6	7	10	11	12	13	20	21	22	24	25	26	27	32	34	39	40	0
1	2	6	7	10	13	14	22	23	24	31	37	40	0
4	6	8	10	11	13	19	25	27	30	35	36	37	0
1	5	8	9	11	14	15	17	18	19	20	24	25	27	31	35	39	0
1	2	5	6	7	8	10	14	19	21	26	30	33	34	37	38	0
1	6	7	9	11	16	20	22	26	27	28	30	33	37	38	0
6	8	10	11	12	13	14	15	21	22	27	28	29	30	32	33	35	36	38	39	0
5	6	7	11	12	16	19	24	25	27	30	35	36	37	39	0
12	13	14	17	20	21	25	26	27	28	30	31	34	37	38	40	0
5	8	11	14	15	19	20	21	23	25	28	31	32	39	0


comments:
random graph
nodes 40
edges 312
rng seed 734 
